p edge 50 304 5
v 12 2 3 5 7 14 19 23 26 31 32 33 38
v 5 8 10 27 29 50
v 11 9 12 13 24 28 30 36 41 43 44 47
v 8 6 15 16 17 20 22 39 46
v 14 1 4 11 18 21 25 34 35 37 40 42 45 48 49
e 1 4
e 1 15
e 1 18
e 1 19
e 1 21
e 1 23
e 1 33
e 1 41
e 1 49
e 2 10
e 2 13
e 2 24
e 2 30
e 2 31
e 2 43
e 2 47
e 3 16
e 3 21
e 3 24
e 3 26
e 3 35
e 3 36
e 3 49
e 4 12
e 4 13
e 4 14
e 4 15
e 4 17
e 4 19
e 4 23
e 4 27
e 4 28
e 4 32
e 4 37
e 4 40
e 4 41
e 4 43
e 4 48
e 5 10
e 5 14
e 5 23
e 5 26
e 5 27
e 5 28
e 5 30
e 5 39
e 5 44
e 5 46
e 5 47
e 5 48
e 5 50
e 6 7
e 6 10
e 6 11
e 6 16
e 6 21
e 6 22
e 6 28
e 6 29
e 6 30
e 6 33
e 6 49
e 6 50
e 7 8
e 7 10
e 7 13
e 7 14
e 7 15
e 7 25
e 7 26
e 7 32
e 7 34
e 7 38
e 7 41
e 7 44
e 7 45
e 7 46
e 7 48
e 8 14
e 8 15
e 8 21
e 8 26
e 8 33
e 8 37
e 8 38
e 8 42
e 8 44
e 9 16
e 9 17
e 9 21
e 9 22
e 9 25
e 9 27
e 9 32
e 9 33
e 9 36
e 9 38
e 9 40
e 10 15
e 10 19
e 10 21
e 10 23
e 10 25
e 10 28
e 10 29
e 10 33
e 10 36
e 10 38
e 10 41
e 10 48
e 11 15
e 11 18
e 11 21
e 11 22
e 11 30
e 11 34
e 11 36
e 11 42
e 11 47
e 11 50
e 12 16
e 12 21
e 12 25
e 12 28
e 12 29
e 12 32
e 12 33
e 12 36
e 12 40
e 13 18
e 13 24
e 13 25
e 13 28
e 13 30
e 13 34
e 13 43
e 13 45
e 14 17
e 14 22
e 14 23
e 14 28
e 14 29
e 14 37
e 14 39
e 14 48
e 15 21
e 15 25
e 15 36
e 15 43
e 15 46
e 15 48
e 16 17
e 16 18
e 16 25
e 16 26
e 16 28
e 16 31
e 16 32
e 16 36
e 16 38
e 16 39
e 16 45
e 16 49
e 17 20
e 17 26
e 17 27
e 17 28
e 17 36
e 17 43
e 17 49
e 17 50
e 18 20
e 18 21
e 18 34
e 18 35
e 18 38
e 18 42
e 18 43
e 18 44
e 18 49
e 19 21
e 19 22
e 19 24
e 19 29
e 19 34
e 19 37
e 19 47
e 20 27
e 20 32
e 20 35
e 20 37
e 20 41
e 20 43
e 20 44
e 20 46
e 21 23
e 21 24
e 21 28
e 21 32
e 21 35
e 21 38
e 21 39
e 21 41
e 21 46
e 22 26
e 22 29
e 22 30
e 22 32
e 22 40
e 22 44
e 22 48
e 23 24
e 23 26
e 23 28
e 23 33
e 23 34
e 23 40
e 23 46
e 23 47
e 23 48
e 24 30
e 24 45
e 25 34
e 25 38
e 25 39
e 25 47
e 25 48
e 25 50
e 26 27
e 26 34
e 26 37
e 26 38
e 26 40
e 26 50
e 27 28
e 27 31
e 27 34
e 27 46
e 27 50
e 28 35
e 28 36
e 28 38
e 28 46
e 29 32
e 29 34
e 29 35
e 29 36
e 29 40
e 29 45
e 29 47
e 29 48
e 30 42
e 30 49
e 31 32
e 31 36
e 31 41
e 31 46
e 32 33
e 32 34
e 32 35
e 32 37
e 32 39
e 32 40
e 32 43
e 32 44
e 32 46
e 32 47
e 33 40
e 33 43
e 33 44
e 33 47
e 33 50
e 34 36
e 34 44
e 34 49
e 35 39
e 35 40
e 35 42
e 35 46
e 35 48
e 35 50
e 36 42
e 36 50
e 37 41
e 37 45
e 37 46
e 37 49
e 37 50
e 38 40
e 38 48
e 38 49
e 38 50
e 39 41
e 41 44
e 41 45
e 41 46
e 43 44
e 43 47
e 43 50
e 44 46
e 44 50
e 45 50
e 48 50
e 49 50
